(declare-fun var0 () String)
(assert (RegexIn var0 (RegexConcat (RegexStar (RegexStar (Str2Reg "bbb"))) (RegexConcat (RegexPlus (RegexPlus (Str2Reg "aaa"))) (RegexConcat (RegexPlus (RegexUnion (Str2Reg "8") (Str2Reg "999"))) (RegexConcat (RegexPlus (RegexStar (Str2Reg "77"))) (RegexConcat (RegexPlus (RegexPlus (Str2Reg "6"))) (RegexConcat (RegexUnion (RegexStar (Str2Reg "44")) (RegexStar (Str2Reg "5"))) (RegexConcat (RegexStar (RegexUnion (Str2Reg "22") (Str2Reg "33"))) (RegexConcat (RegexPlus (RegexUnion (Str2Reg "00") (Str2Reg "111"))) (RegexConcat (RegexStar (RegexStar (Str2Reg "~~"))) (RegexConcat (RegexPlus (RegexUnion (Str2Reg "|||") (Str2Reg "}}}"))) (RegexConcat (RegexStar (RegexUnion (Str2Reg "`") (Str2Reg "{{{"))) (RegexConcat (RegexStar (RegexStar (Str2Reg "__"))) (RegexConcat (RegexPlus (RegexStar (Str2Reg "^^^"))) (RegexConcat (RegexUnion (RegexPlus (Str2Reg "[[[")) (RegexUnion (Str2Reg "\\\\\\") (Str2Reg "]]]"))) (RegexConcat (RegexUnion (RegexStar (Str2Reg ">")) (RegexUnion (Str2Reg "??") (Str2Reg "@@"))) (RegexConcat (RegexStar (RegexUnion (Str2Reg "<") (Str2Reg "="))) (RegexConcat (RegexPlus (RegexUnion (Str2Reg ":::") (Str2Reg ";"))) (RegexConcat (RegexStar (RegexPlus (Str2Reg "///"))) (RegexConcat (RegexStar (RegexUnion (Str2Reg "---") (Str2Reg ".."))) (RegexConcat (RegexPlus (RegexPlus (Str2Reg ",,"))) (RegexConcat (RegexPlus (RegexPlus (Str2Reg "+"))) (RegexConcat (RegexStar (RegexUnion (Str2Reg ")))") (Str2Reg "*"))) (RegexConcat (RegexUnion (RegexPlus (Str2Reg "&")) (RegexUnion (Str2Reg "'''") (Str2Reg "("))) (RegexConcat (RegexUnion (RegexPlus (Str2Reg "$$")) (RegexPlus (Str2Reg "%%"))) (RegexConcat (RegexUnion (RegexPlus (Str2Reg "!!!")) (RegexUnion (Str2Reg "\"\"") (Str2Reg "###"))) (RegexConcat (RegexUnion (RegexStar (Str2Reg "XX")) (RegexUnion (Str2Reg "Y") (Str2Reg "Z"))) (RegexConcat (RegexStar (RegexStar (Str2Reg "WW"))) (RegexConcat (RegexStar (RegexPlus (Str2Reg "V"))) (RegexConcat (RegexUnion (RegexStar (Str2Reg "S")) (RegexUnion (Str2Reg "TTT") (Str2Reg "UU"))) (RegexConcat (RegexPlus (RegexPlus (Str2Reg "RR"))) (RegexConcat (RegexUnion (RegexUnion (Str2Reg "NN") (Str2Reg "O")) (RegexUnion (Str2Reg "PPP") (Str2Reg "Q"))) (RegexConcat (RegexPlus (RegexStar (Str2Reg "MMM"))) (RegexConcat (RegexPlus (RegexStar (Str2Reg "LLL"))) (RegexConcat (RegexStar (RegexPlus (Str2Reg "K"))) (RegexConcat (RegexPlus (RegexUnion (Str2Reg "I") (Str2Reg "J"))) (RegexConcat (RegexPlus (RegexUnion (Str2Reg "GGG") (Str2Reg "HHH"))) (RegexConcat (RegexUnion (RegexUnion (Str2Reg "C") (Str2Reg "DDD")) (RegexUnion (Str2Reg "EEE") (Str2Reg "F"))) (RegexConcat (RegexUnion (RegexStar (Str2Reg "zz")) (RegexUnion (Str2Reg "A") (Str2Reg "BBB"))) (RegexConcat (RegexUnion (RegexStar (Str2Reg "w")) (RegexUnion (Str2Reg "xxx") (Str2Reg "yy"))) (RegexConcat (RegexPlus (RegexPlus (Str2Reg "vv"))) (RegexConcat (RegexUnion (RegexStar (Str2Reg "sss")) (RegexUnion (Str2Reg "t") (Str2Reg "uuu"))) (RegexConcat (RegexStar (RegexPlus (Str2Reg "r"))) (RegexConcat (RegexUnion (RegexUnion (Str2Reg "oo") (Str2Reg "ppp")) (RegexPlus (Str2Reg "q"))) (RegexConcat (RegexStar (RegexStar (Str2Reg "nnn"))) (RegexConcat (RegexUnion (RegexUnion (Str2Reg "k") (Str2Reg "lll")) (RegexStar (Str2Reg "mmm"))) (RegexConcat (RegexStar (RegexUnion (Str2Reg "iii") (Str2Reg "jjj"))) (RegexConcat (RegexStar (RegexStar (Str2Reg "h"))) (RegexConcat (RegexPlus (RegexPlus (Str2Reg "gg"))) (RegexConcat (RegexPlus (RegexPlus (Str2Reg "ff"))) (RegexConcat (RegexUnion (RegexUnion (Str2Reg "cc") (Str2Reg "dd")) (RegexPlus (Str2Reg "eee"))) (RegexConcat (RegexStar (RegexPlus (Str2Reg "bb"))) (RegexConcat (RegexUnion (RegexStar (Str2Reg "999")) (RegexPlus (Str2Reg "aa"))) (RegexConcat (RegexUnion (RegexPlus (Str2Reg "7")) (RegexPlus (Str2Reg "88"))) (RegexConcat (RegexPlus (RegexPlus (Str2Reg "66"))) (RegexConcat (RegexUnion (RegexStar (Str2Reg "33")) (RegexUnion (Str2Reg "444") (Str2Reg "555"))) (RegexUnion (RegexStar (Str2Reg "00")) (RegexUnion (Str2Reg "111") (Str2Reg "22"))))))))))))))))))))))))))))))))))))))))))))))))))))))))))))
(assert (not (RegexIn var0 (RegexConcat (RegexPlus (RegexUnion (Str2Reg "999") (Str2Reg "aaa"))) (RegexConcat (RegexStar (RegexUnion (Str2Reg "7") (Str2Reg "8"))) (RegexConcat (RegexPlus (RegexStar (Str2Reg "66"))) (RegexConcat (RegexUnion (RegexPlus (Str2Reg "4")) (RegexPlus (Str2Reg "5"))) (RegexConcat (RegexPlus (RegexUnion (Str2Reg "2") (Str2Reg "33"))) (RegexConcat (RegexPlus (RegexPlus (Str2Reg "11"))) (RegexConcat (RegexUnion (RegexStar (Str2Reg "}")) (RegexUnion (Str2Reg "~~") (Str2Reg "0"))) (RegexConcat (RegexUnion (RegexUnion (Str2Reg "`") (Str2Reg "{{")) (RegexPlus (Str2Reg "|||"))) (RegexConcat (RegexStar (RegexUnion (Str2Reg "^^") (Str2Reg "_"))) (RegexConcat (RegexPlus (RegexUnion (Str2Reg "\\\\\\") (Str2Reg "]]]"))) (RegexConcat (RegexPlus (RegexPlus (Str2Reg "["))) (RegexConcat (RegexUnion (RegexStar (Str2Reg ">")) (RegexUnion (Str2Reg "??") (Str2Reg "@@"))) (RegexConcat (RegexStar (RegexStar (Str2Reg "==="))) (RegexConcat (RegexUnion (RegexPlus (Str2Reg ";;;")) (RegexPlus (Str2Reg "<"))) (RegexConcat (RegexStar (RegexPlus (Str2Reg ":::"))) (RegexConcat (RegexUnion (RegexPlus (Str2Reg "..")) (RegexPlus (Str2Reg "/"))) (RegexConcat (RegexStar (RegexStar (Str2Reg "---"))) (RegexConcat (RegexUnion (RegexPlus (Str2Reg "++")) (RegexStar (Str2Reg ",,"))) (RegexConcat (RegexUnion (RegexStar (Str2Reg "))")) (RegexStar (Str2Reg "*"))) (RegexConcat (RegexStar (RegexUnion (Str2Reg "'''") (Str2Reg "("))) (RegexConcat (RegexUnion (RegexUnion (Str2Reg "##") (Str2Reg "$$$")) (RegexUnion (Str2Reg "%%") (Str2Reg "&"))) (RegexConcat (RegexStar (RegexUnion (Str2Reg "!!") (Str2Reg "\"\"\""))) (RegexConcat (RegexStar (RegexPlus (Str2Reg "ZZZ"))) (RegexConcat (RegexPlus (RegexStar (Str2Reg "YYY"))) (RegexConcat (RegexStar (RegexPlus (Str2Reg "XX"))) (RegexConcat (RegexStar (RegexStar (Str2Reg "WW"))) (RegexConcat (RegexUnion (RegexPlus (Str2Reg "TTT")) (RegexUnion (Str2Reg "UU") (Str2Reg "VV"))) (RegexConcat (RegexStar (RegexStar (Str2Reg "SS"))) (RegexConcat (RegexUnion (RegexUnion (Str2Reg "PPP") (Str2Reg "QQQ")) (RegexStar (Str2Reg "R"))) (RegexConcat (RegexUnion (RegexPlus (Str2Reg "NNN")) (RegexStar (Str2Reg "O"))) (RegexConcat (RegexStar (RegexUnion (Str2Reg "LL") (Str2Reg "MMM"))) (RegexConcat (RegexStar (RegexUnion (Str2Reg "JJ") (Str2Reg "K"))) (RegexConcat (RegexStar (RegexUnion (Str2Reg "HHH") (Str2Reg "II"))) (RegexConcat (RegexStar (RegexStar (Str2Reg "GGG"))) (RegexConcat (RegexStar (RegexStar (Str2Reg "F"))) (RegexConcat (RegexStar (RegexStar (Str2Reg "EE"))) (RegexConcat (RegexUnion (RegexPlus (Str2Reg "CCC")) (RegexPlus (Str2Reg "DD"))) (RegexConcat (RegexPlus (RegexUnion (Str2Reg "AAA") (Str2Reg "BBB"))) (RegexConcat (RegexUnion (RegexPlus (Str2Reg "xx")) (RegexUnion (Str2Reg "yyy") (Str2Reg "zz"))) (RegexConcat (RegexUnion (RegexUnion (Str2Reg "u") (Str2Reg "vv")) (RegexPlus (Str2Reg "www"))) (RegexConcat (RegexPlus (RegexPlus (Str2Reg "t"))) (RegexConcat (RegexUnion (RegexPlus (Str2Reg "q")) (RegexUnion (Str2Reg "r") (Str2Reg "sss"))) (RegexConcat (RegexPlus (RegexPlus (Str2Reg "pp"))) (RegexConcat (RegexPlus (RegexPlus (Str2Reg "oo"))) (RegexConcat (RegexStar (RegexUnion (Str2Reg "m") (Str2Reg "n"))) (RegexConcat (RegexStar (RegexUnion (Str2Reg "kk") (Str2Reg "lll"))) (RegexConcat (RegexUnion (RegexUnion (Str2Reg "g") (Str2Reg "h")) (RegexUnion (Str2Reg "ii") (Str2Reg "jjj"))) (RegexConcat (RegexPlus (RegexUnion (Str2Reg "ee") (Str2Reg "f"))) (RegexConcat (RegexStar (RegexStar (Str2Reg "ddd"))) (RegexConcat (RegexPlus (RegexStar (Str2Reg "cc"))) (RegexConcat (RegexPlus (RegexUnion (Str2Reg "aa") (Str2Reg "b"))) (RegexConcat (RegexPlus (RegexUnion (Str2Reg "8") (Str2Reg "999"))) (RegexConcat (RegexStar (RegexPlus (Str2Reg "777"))) (RegexConcat (RegexStar (RegexUnion (Str2Reg "55") (Str2Reg "666"))) (RegexConcat (RegexUnion (RegexPlus (Str2Reg "333")) (RegexStar (Str2Reg "4"))) (RegexUnion (RegexStar (Str2Reg "000")) (RegexUnion (Str2Reg "11") (Str2Reg "222")))))))))))))))))))))))))))))))))))))))))))))))))))))))))))))
(check-sat)